243/surrogate_problem/sol/surrogate2_8.sol
# Solution for model problem_
# Objective value = 1.7978790779869980e+05
x(0_0) 0
x(0_1) 0
x(0_2) 0
x(0_3) 0
x(0_4) 0
x(0_5) 1
x(0_6) 0
x(0_7) 0
x(0_8) 0
x(0_9) 0
x(0_10) 0
x(1_11) 0
x(1_12) 0
x(1_13) 0
x(1_14) 1
x(1_15) 0
x(1_16) 0
x(1_17) 0
x(1_18) 0
x(1_19) 0
x(1_20) 0
x(1_21) 0
x(1_22) 0
x(1_23) 0
x(1_24) 0
x(2_25) 0
x(2_26) 0
x(2_27) 0
x(2_28) 0
x(2_29) 0
x(2_30) 0
x(2_31) 0
x(2_32) 0
x(2_33) 0
x(2_34) 0
x(2_35) 1
x(2_36) 0
x(2_37) 0
x(3_38) 0
x(3_39) 0
x(3_40) 0
x(3_41) 0
x(3_42) 0
x(3_43) 0
x(3_44) 0
x(3_45) 0
x(3_46) 0
x(3_47) 0
x(3_48) 0
x(3_49) 0
x(3_50) 0
x(3_51) 0
x(3_52) 0
x(3_53) 0
x(3_54) 1
x(4_55) 0
x(4_56) 0
x(4_57) 0
x(4_58) 0
x(4_59) 0
x(4_60) 0
x(4_61) 0
x(4_62) 0
x(4_63) 0
x(4_64) 0
x(4_65) 0
x(4_66) 0
x(4_67) 0
x(4_68) 0
x(4_69) 0
x(4_70) 1
x(4_71) 0
x(4_72) 0
x(4_73) 0
x(4_74) 0
x(5_75) 0
x(5_76) 0
x(5_77) 0
x(5_78) 1
x(5_79) 0
x(5_80) 0
x(5_81) 0
x(5_82) 0
x(5_83) 0
x(5_84) 0
x(6_85) 0
x(6_86) 0
x(6_87) 0
x(6_88) 0
x(6_89) 0
x(6_90) 0
x(6_91) 0
x(6_92) 0
x(6_93) 0
x(6_94) 0
x(6_95) 0
x(6_96) 1
x(7_97) 0
x(7_98) 0
x(7_99) 1
x(7_100) 0
x(7_101) 0
x(7_102) 0
x(7_103) 0
x(7_104) 0
x(7_105) 0
x(7_106) 0
x(7_107) 0
x(7_108) 0
x(7_109) 0
x(7_110) 0
x(7_111) 0
x(7_112) 0
x(7_113) 0
x(7_114) 0
x(7_115) 0
x(7_116) 0
x(8_117) 0
x(8_118) 1
x(8_119) 0
x(8_120) 0
x(8_121) 0
x(8_122) 0
x(8_123) 0
x(8_124) 0
x(8_125) 0
x(8_126) 0
x(9_127) 0
x(9_128) 0
x(9_129) 0
x(9_130) 0
x(9_131) 0
x(9_132) 0
x(9_133) 0
x(9_134) 0
x(9_135) 0
x(9_136) 0
x(9_137) 1
x(9_138) 0
x(9_139) 0
x(9_140) 0
x(9_141) 0
x(9_142) 0
x(9_143) 0
x(10_144) 0
x(10_145) 1
x(10_146) 0
x(10_147) 0
x(10_148) 0
x(10_149) 0
x(10_150) 0
x(10_151) 0
x(10_152) 0
x(10_153) 0
x(10_154) 0
x(10_155) 0
x(10_156) 0
x(10_157) 0
x(10_158) 0
x(10_159) 0
x(10_160) 0
x(11_161) 0
x(11_162) 0
x(11_163) 0
x(11_164) 0
x(11_165) 0
x(11_166) 0
x(11_167) 0
x(11_168) 0
x(11_169) 0
x(11_170) 0
x(11_171) 0
x(11_172) 0
x(11_173) 0
x(11_174) 1
x(11_175) 0
x(11_176) 0
x(11_177) 0
x(11_178) 0
x(12_179) 0
x(12_180) 0
x(12_181) 0
x(12_182) 0
x(12_183) 0
x(12_184) 0
x(12_185) 1
x(12_186) 0
x(12_187) 0
x(12_188) 0
x(12_189) 0
x(12_190) 0
x(12_191) 0
x(12_192) 0
x(13_193) 0
x(13_194) 0
x(13_195) 0
x(13_196) 0
x(13_197) 0
x(13_198) 0
x(13_199) 0
x(13_200) 1
x(13_201) 0
x(13_202) 0
x(13_203) 0
x(14_204) 0
x(14_205) 0
x(14_206) 0
x(14_207) 1
x(14_208) 0
x(14_209) 0
x(14_210) 0
x(14_211) 0
x(14_212) 0
x(14_213) 0
x(14_214) 0
x(14_215) 0
x(14_216) 0
x(15_217) 0
x(15_218) 0
x(15_219) 0
x(15_220) 0
x(15_221) 0
x(15_222) 0
x(15_223) 0
x(15_224) 0
x(15_225) 1
x(15_226) 0
x(15_227) 0
x(15_228) 0
x(15_229) 0
x(15_230) 0
x(15_231) 0
x(16_232) 0
x(16_233) 0
x(16_234) 1
x(16_235) 0
x(16_236) 0
x(16_237) 0
x(16_238) 0
x(16_239) 0
x(16_240) 0
x(16_241) 0
x(16_242) 0
x(16_243) 0
x(17_244) 0
x(17_245) 0
x(17_246) 0
x(17_247) 0
x(17_248) 0
x(17_249) 1
x(17_250) 0
x(17_251) 0
x(17_252) 0
x(17_253) 0
x(17_254) 0
x(17_255) 0
x(17_256) 0
x(17_257) 0
x(18_258) 0
x(18_259) 1
x(18_260) 0
x(18_261) 0
x(18_262) 0
x(18_263) 0
x(18_264) 0
x(18_265) 0
x(18_266) 0
x(18_267) 0
x(18_268) 0
x(18_269) 0
x(18_270) 0
x(18_271) 0
x(18_272) 0
x(18_273) 0
x(18_274) 0
x(18_275) 0
x(18_276) 0
x(19_277) 0
x(19_278) 0
x(19_279) 0
x(19_280) 0
x(19_281) 0
x(19_282) 1
x(19_283) 0
x(19_284) 0
x(19_285) 0
x(19_286) 0
x(19_287) 0
x(19_288) 0
x(19_289) 0
x(19_290) 0
x(19_291) 0
x(19_292) 0
x(19_293) 0
x(19_294) 0
x(19_295) 0
x(19_296) 0
x(20_297) 0
x(20_298) 0
x(20_299) 0
x(20_300) 0
x(20_301) 0
x(20_302) 0
x(20_303) 0
x(20_304) 1
x(20_305) 0
x(20_306) 0
x(20_307) 0
x(20_308) 0
x(21_309) 0
x(21_310) 0
x(21_311) 0
x(21_312) 0
x(21_313) 0
x(21_314) 0
x(21_315) 0
x(21_316) 1
x(21_317) 0
x(21_318) 0
x(21_319) 0
x(21_320) 0
x(21_321) 0
x(22_322) 0
x(22_323) 0
x(22_324) 0
x(22_325) 0
x(22_326) 0
x(22_327) 0
x(22_328) 0
x(22_329) 0
x(22_330) 0
x(22_331) 0
x(22_332) 0
x(22_333) 0
x(22_334) 1
x(22_335) 0
x(22_336) 0
x(22_337) 0
x(22_338) 0
x(22_339) 0
x(22_340) 0
x(23_341) 0
x(23_342) 0
x(23_343) 1
x(23_344) 0
x(23_345) 0
x(23_346) 0
x(23_347) 0
x(23_348) 0
x(23_349) 0
x(23_350) 0
x(23_351) 0
x(23_352) 0
x(23_353) 0
x(23_354) 0
x(23_355) 0
x(23_356) 0
x(24_357) 0
x(24_358) 0
x(24_359) 1
x(24_360) 0
x(24_361) 0
x(24_362) 0
x(24_363) 0
x(24_364) 0
x(24_365) 0
x(24_366) 0
x(24_367) 0
x(24_368) 0
x(24_369) 0
x(24_370) 0
x(24_371) 0
x(24_372) 0
x(24_373) 0
x(25_374) 0
x(25_375) 0
x(25_376) 0
x(25_377) 0
x(25_378) 1
x(25_379) 0
x(25_380) 0
x(25_381) 0
x(25_382) 0
x(25_383) 0
x(25_384) 0
x(26_385) 0
x(26_386) 0
x(26_387) 0
x(26_388) 0
x(26_389) 0
x(26_390) 0
x(26_391) 0
x(26_392) 0
x(26_393) 0
x(26_394) 0
x(26_395) 0
x(26_396) 0
x(26_397) 1
x(27_398) 0
x(27_399) 0
x(27_400) 0
x(27_401) 0
x(27_402) 0
x(27_403) 0
x(27_404) 0
x(27_405) 0
x(27_406) 1
x(27_407) 0
x(27_408) 0
x(27_409) 0
x(27_410) 0
x(27_411) 0
x(27_412) 0
x(27_413) 0
x(27_414) 0
x(27_415) 0
x(27_416) 0
x(28_417) 0
x(28_418) 0
x(28_419) 0
x(28_420) 0
x(28_421) 0
x(28_422) 0
x(28_423) 0
x(28_424) 0
x(28_425) 0
x(28_426) 0
x(28_427) 0
x(28_428) 0
x(28_429) 0
x(28_430) 1
x(28_431) 0
x(28_432) 0
x(28_433) 0
x(29_434) 0
x(29_435) 0
x(29_436) 1
x(29_437) 0
x(29_438) 0
x(29_439) 0
x(29_440) 0
x(29_441) 0
x(29_442) 0
x(29_443) 0
x(30_444) 0
x(30_445) 0
x(30_446) 0
x(30_447) 0
x(30_448) 0
x(30_449) 0
x(30_450) 0
x(30_451) 0
x(30_452) 0
x(30_453) 0
x(30_454) 0
x(30_455) 0
x(30_456) 0
x(30_457) 0
x(30_458) 0
x(30_459) 1
x(30_460) 0
x(30_461) 0
x(30_462) 0
x(31_463) 0
x(31_464) 1
x(31_465) 0
x(31_466) 0
x(31_467) 0
x(31_468) 0
x(31_469) 0
x(31_470) 0
x(31_471) 0
x(31_472) 0
x(31_473) 0
x(31_474) 0
x(31_475) 0
x(32_476) 0
x(32_477) 0
x(32_478) 1
x(32_479) 0
x(32_480) 0
x(32_481) 0
x(32_482) 0
x(32_483) 0
x(32_484) 0
x(32_485) 0
x(32_486) 0
x(32_487) 0
x(33_488) 0
x(33_489) 0
x(33_490) 0
x(33_491) 0
x(33_492) 0
x(33_493) 0
x(33_494) 0
x(33_495) 0
x(33_496) 0
x(33_497) 0
x(33_498) 0
x(33_499) 0
x(33_500) 0
x(33_501) 0
x(33_502) 1
x(33_503) 0
x(33_504) 0
x(33_505) 0
x(33_506) 0
x(33_507) 0
x(34_508) 0
x(34_509) 0
x(34_510) 0
x(34_511) 0
x(34_512) 1
x(34_513) 0
x(34_514) 0
x(34_515) 0
x(34_516) 0
x(34_517) 0
x(34_518) 0
x(34_519) 0
x(34_520) 0
x(34_521) 0
x(35_522) 1
x(35_523) 0
x(35_524) 0
x(35_525) 0
x(35_526) 0
x(35_527) 0
x(35_528) 0
x(35_529) 0
x(35_530) 0
x(35_531) 0
x(35_532) 0
x(35_533) 0
x(35_534) 0
x(36_535) 0
x(36_536) 0
x(36_537) 0
x(36_538) 0
x(36_539) 0
x(36_540) 0
x(36_541) 0
x(36_542) 0
x(36_543) 0
x(36_544) 0
x(36_545) 0
x(36_546) 0
x(36_547) 0
x(36_548) 1
x(37_549) 0
x(37_550) 0
x(37_551) 0
x(37_552) 1
x(37_553) 0
x(37_554) 0
x(37_555) 0
x(37_556) 0
x(37_557) 0
x(37_558) 0
x(37_559) 0
x(37_560) 0
x(37_561) 0
x(37_562) 0
x(37_563) 0
x(37_564) 0
x(38_565) 0
x(38_566) 0
x(38_567) 0
x(38_568) 0
x(38_569) 0
x(38_570) 0
x(38_571) 0
x(38_572) 0
x(38_573) 1
x(38_574) 0
x(38_575) 0
x(38_576) 0
x(38_577) 0
x(38_578) 0
x(38_579) 0
x(38_580) 0
x(38_581) 0
x(38_582) 0
x(38_583) 0
x(39_584) 1
x(39_585) 0
x(39_586) 0
x(39_587) 0
x(39_588) 0
x(39_589) 0
x(39_590) 0
x(39_591) 0
x(39_592) 0
x(39_593) 0
x(39_594) 0
x(40_595) 0
x(40_596) 0
x(40_597) 0
x(40_598) 0
x(40_599) 0
x(40_600) 0
x(40_601) 0
x(40_602) 0
x(40_603) 0
x(40_604) 0
x(40_605) 0
x(40_606) 0
x(40_607) 0
x(40_608) 0
x(40_609) 1
x(40_610) 0
x(41_611) 0
x(41_612) 0
x(41_613) 0
x(41_614) 0
x(41_615) 0
x(41_616) 0
x(41_617) 0
x(41_618) 0
x(41_619) 0
x(41_620) 0
x(41_621) 0
x(41_622) 1
x(41_623) 0
x(41_624) 0
x(41_625) 0
x(41_626) 0
x(41_627) 0
x(41_628) 0
x(41_629) 0
x(41_630) 0
x(42_631) 0
x(42_632) 0
x(42_633) 0
x(42_634) 0
x(42_635) 0
x(42_636) 0
x(42_637) 0
x(42_638) 0
x(42_639) 0
x(42_640) 0
x(42_641) 0
x(42_642) 1
x(42_643) 0
x(42_644) 0
x(42_645) 0
x(42_646) 0
x(42_647) 0
x(42_648) 0
x(42_649) 0
x(42_650) 0
x(43_651) 0
x(43_652) 0
x(43_653) 0
x(43_654) 0
x(43_655) 0
x(43_656) 0
x(43_657) 0
x(43_658) 0
x(43_659) 0
x(43_660) 0
x(43_661) 0
x(43_662) 0
x(43_663) 0
x(43_664) 0
x(43_665) 1
x(43_666) 0
x(44_667) 0
x(44_668) 0
x(44_669) 0
x(44_670) 1
x(44_671) 0
x(44_672) 0
x(44_673) 0
x(44_674) 0
x(44_675) 0
x(44_676) 0
x(44_677) 0
x(44_678) 0
x(44_679) 0
x(44_680) 0
x(44_681) 0
x(45_682) 0
x(45_683) 0
x(45_684) 0
x(45_685) 0
x(45_686) 0
x(45_687) 0
x(45_688) 0
x(45_689) 0
x(45_690) 0
x(45_691) 0
x(45_692) 0
x(45_693) 0
x(45_694) 1
x(45_695) 0
x(45_696) 0
x(45_697) 0
x(45_698) 0
x(46_699) 0
x(46_700) 0
x(46_701) 0
x(46_702) 0
x(46_703) 0
x(46_704) 0
x(46_705) 0
x(46_706) 0
x(46_707) 0
x(46_708) 1
x(46_709) 0
x(46_710) 0
x(46_711) 0
x(46_712) 0
x(46_713) 0
x(46_714) 0
x(46_715) 0
x(46_716) 0
x(46_717) 0
x(46_718) 0
x(47_719) 0
x(47_720) 0
x(47_721) 0
x(47_722) 0
x(47_723) 0
x(47_724) 0
x(47_725) 0
x(47_726) 0
x(47_727) 0
x(47_728) 0
x(47_729) 1
x(47_730) 0
x(47_731) 0
x(48_732) 0
x(48_733) 0
x(48_734) 0
x(48_735) 0
x(48_736) 0
x(48_737) 0
x(48_738) 1
x(48_739) 0
x(48_740) 0
x(48_741) 0
x(48_742) 0
x(48_743) 0
x(48_744) 0
x(48_745) 0
x(48_746) 0
x(48_747) 0
x(48_748) 0
x(49_749) 0
x(49_750) 0
x(49_751) 0
x(49_752) 0
x(49_753) 0
x(49_754) 0
x(49_755) 0
x(49_756) 0
x(49_757) 0
x(49_758) 0
x(49_759) 0
x(49_760) 0
x(49_761) 1
x(49_762) 0
x(49_763) 0
x(49_764) 0
x(49_765) 0
x(49_766) 0
x(49_767) 0
x(50_768) 0
x(50_769) 0
x(50_770) 0
x(50_771) 0
x(50_772) 0
x(50_773) 0
x(50_774) 0
x(50_775) 0
x(50_776) 0
x(50_777) 0
x(50_778) 0
x(50_779) 0
x(50_780) 0
x(50_781) 0
x(50_782) 1
x(51_783) 1
x(51_784) 0
x(51_785) 0
x(51_786) 0
x(51_787) 0
x(51_788) 0
x(51_789) 0
x(51_790) 0
x(51_791) 0
x(51_792) 0
x(51_793) 0
x(51_794) 0
x(51_795) 0
x(51_796) 0
x(51_797) 0
x(52_798) 0
x(52_799) 0
x(52_800) 0
x(52_801) 0
x(52_802) 0
x(52_803) 0
x(52_804) 0
x(52_805) 0
x(52_806) 1
x(52_807) 0
x(52_808) 0
x(52_809) 0
x(52_810) 0
x(52_811) 0
x(53_812) 0
x(53_813) 0
x(53_814) 0
x(53_815) 0
x(53_816) 0
x(53_817) 0
x(53_818) 0
x(53_819) 0
x(53_820) 0
x(53_821) 0
x(53_822) 0
x(53_823) 1
x(53_824) 0
x(53_825) 0
x(53_826) 0
x(53_827) 0
x(53_828) 0
x(54_829) 1
x(54_830) 0
x(54_831) 0
x(54_832) 0
x(54_833) 0
x(54_834) 0
x(54_835) 0
x(54_836) 0
x(54_837) 0
x(54_838) 0
x(54_839) 0
x(54_840) 0
x(54_841) 0
x(54_842) 0
x(54_843) 0
x(54_844) 0
x(54_845) 0
x(55_846) 0
x(55_847) 0
x(55_848) 0
x(55_849) 0
x(55_850) 0
x(55_851) 0
x(55_852) 0
x(55_853) 0
x(55_854) 0
x(55_855) 0
x(55_856) 0
x(55_857) 1
x(55_858) 0
x(55_859) 0
x(55_860) 0
x(55_861) 0
x(55_862) 0
x(55_863) 0
x(55_864) 0
x(56_865) 0
x(56_866) 0
x(56_867) 0
x(56_868) 0
x(56_869) 0
x(56_870) 0
x(56_871) 0
x(56_872) 0
x(56_873) 0
x(56_874) 1
x(56_875) 0
x(57_876) 1
x(57_877) 0
x(57_878) 0
x(57_879) 0
x(57_880) 0
x(57_881) 0
x(57_882) 0
x(57_883) 0
x(57_884) 0
x(57_885) 0
x(57_886) 0
x(57_887) 0
x(57_888) 0
x(57_889) 0
x(58_890) 0
x(58_891) 0
x(58_892) 1
x(58_893) 0
x(58_894) 0
x(58_895) 0
x(58_896) 0
x(58_897) 0
x(58_898) 0
x(58_899) 0
x(58_900) 0
x(59_901) 0
x(59_902) 0
x(59_903) 0
x(59_904) 0
x(59_905) 0
x(59_906) 0
x(59_907) 0
x(59_908) 1
x(59_909) 0
x(59_910) 0
x(59_911) 0
x(59_912) 0
x(59_913) 0
x(59_914) 0
x(59_915) 0
x(59_916) 0
x(59_917) 0
x(59_918) 0
x(59_919) 0
x_1_0 0
s_1_0 8.4012092556804419e-01
z_1_0 1
x_1_1 0
s_1_1 1.3676281733205542e+00
z_1_1 1
x_1_2 3.0422904109954834e+02
s_1_2 0
z_1_2 0
x_1_3 0
s_1_3 7.6540864197886549e-01
z_1_3 1
x_1_4 0
s_1_4 1.1350237565347925e+00
z_1_4 1
x_1_5 3.0582558298110962e+02
s_1_5 0
z_1_5 0
x_1_6 3.0308016395568848e+02
s_1_6 0
z_1_6 0
x_1_7 3.0612049150466919e+02
s_1_7 0
z_1_7 0
x_1_8 0
s_1_8 6.8122055751155131e-01
z_1_8 1
x_1_9 3.0478573894500732e+02
s_1_9 0
z_1_9 0
x_1_10 3.0553121900558472e+02
s_1_10 0
z_1_10 0
x_1_11 0
s_1_11 1.2024846950080246e+00
z_1_11 1
x_1_12 0
s_1_12 9.8551040404709056e-01
z_1_12 1
x_1_13 3.0658444237709045e+02
s_1_13 0
z_1_13 0
x_1_14 0
s_1_14 8.4690786223654868e-01
z_1_14 1
x_1_15 0
s_1_15 8.5813676516409032e-01
z_1_15 1
x_1_16 3.0314126086235046e+02
s_1_16 0
z_1_16 0
x_1_17 0
s_1_17 7.3075304516532924e-01
z_1_17 1
x_1_18 0
s_1_18 1.1506625625770539e+00
z_1_18 1
x_1_19 0
s_1_19 1.6535100811452139e+00
z_1_19 1
x_1_20 0
s_1_20 9.9276616226416081e-01
z_1_20 1
x_1_21 0
s_1_21 1.1711477043827472e+00
z_1_21 1
x_1_22 0
s_1_22 1.3748225265590008e+00
z_1_22 1
x_1_23 0
s_1_23 1.1517249659809750e+00
z_1_23 1
x_1_24 3.0365889215469360e+02
s_1_24 0
z_1_24 0
x_1_25 3.0285942673683167e+02
s_1_25 0
z_1_25 0
x_1_26 3.0661708831787109e+02
s_1_26 0
z_1_26 0
x_1_27 3.0455849862098694e+02
s_1_27 0
z_1_27 0
x_1_28 0
s_1_28 1.0406929064338328e+00
z_1_28 1
x_1_29 0
s_1_29 1.5361792538315058e+00
z_1_29 1
x_1_30 3.0390414547920227e+02
s_1_30 0
z_1_30 0
x_1_31 0
s_1_31 1.5246909523848444e+00
z_1_31 1
x_1_32 0
s_1_32 4.9798566907338682e-01
z_1_32 1
x_1_33 0
s_1_33 8.9169556298293173e-01
z_1_33 1
x_1_34 3.0624586057662964e+02
s_1_34 0
z_1_34 0
x_1_35 0
s_1_35 1.4807824358576909e+00
z_1_35 1
x_1_36 3.0612529158592224e+02
s_1_36 0
z_1_36 0
x_1_37 0
s_1_37 1.9417258212342858e+00
z_1_37 1
x_1_38 0
s_1_38 1.2732113901292905e+00
z_1_38 1
x_1_39 0
s_1_39 5.3005563069018535e-01
z_1_39 1
x_1_40 3.0538548350334167e+02
s_1_40 0
z_1_40 0
x_1_41 0
s_1_41 1.4190039514214732e+00
z_1_41 1
x_1_42 3.0262016510963440e+02
s_1_42 0
z_1_42 0
x_1_43 305.213529586792
s_1_43 0
z_1_43 0
x_1_44 0
s_1_44 1.2393693377998716e+00
z_1_44 1
x_1_45 0
s_1_45 4.6400752384215593e-01
z_1_45 1
x_1_46 3.0397874546051025e+02
s_1_46 0
z_1_46 0
x_1_47 3.0332444787025452e+02
s_1_47 0
z_1_47 0
x_1_48 3.0323211717605591e+02
s_1_48 0
z_1_48 0
x_1_49 0
s_1_49 8.5253133508376777e-01
z_1_49 1
x_1_50 0
s_1_50 1.1955362261505798e+00
z_1_50 1
x_1_51 3.0370675611495972e+02
s_1_51 0
z_1_51 0
x_1_52 0
s_1_52 1.0076557562570088e+00
z_1_52 1
x_1_53 0
s_1_53 1.3979224936920218e+00
z_1_53 1
x_1_54 0
s_1_54 1.1114041795372032e+00
z_1_54 1
x_1_55 3.0423101782798767e+02
s_1_55 0
z_1_55 0
x_1_56 0
s_1_56 1.0119774717313703e+00
z_1_56 1
x_1_57 3.0320007085800171e+02
s_1_57 0
z_1_57 0
x_1_58 0
s_1_58 1.1140656726493035e+00
z_1_58 1
x_1_59 0
s_1_59 9.5748500253466773e-01
z_1_59 1
x_1_60 0
s_1_60 1.5088714149314910e+00
z_1_60 1
x_1_61 3.0573578739166260e+02
s_1_61 0
z_1_61 0
x_1_62 3.0560414147377014e+02
s_1_62 0
z_1_62 0
x_1_63 0
s_1_63 1.3655937245057430e+00
z_1_63 1
x_1_64 3.0622329998016357e+02
s_1_64 0
z_1_64 0
x_1_65 0
s_1_65 5.8668271766509861e-01
z_1_65 1
x_1_66 302.73876953125
s_1_66 0
z_1_66 0
x_1_67 0
s_1_67 1.1186139327473938e+00
z_1_67 1
x_1_68 0
s_1_68 9.9464991189597640e-01
z_1_68 1
x_1_69 0
s_1_69 1.3707180619239807e+00
z_1_69 1
x_1_70 0
s_1_70 9.6502857870655134e-01
z_1_70 1
x_1_71 3.0462766170501709e+02
s_1_71 0
z_1_71 0
x_1_72 3.0627160835266113e+02
s_1_72 0
z_1_72 0
x_1_73 0
s_1_73 3.5319678345695138e-01
z_1_73 1
x_1_74 3.0531614375114441e+02
s_1_74 0
z_1_74 0
x_1_75 3.0402347278594971e+02
s_1_75 0
z_1_75 0
x_1_76 3.0456402063369751e+02
s_1_76 0
z_1_76 0
x_1_77 3.0503753995895386e+02
s_1_77 0
z_1_77 0
x_1_78 305.869882106781
s_1_78 0
z_1_78 0
x_1_79 0
s_1_79 1.0567845519981347e+00
z_1_79 1
x_1_80 0
s_1_80 8.3711858763126656e-01
z_1_80 1
x_1_81 3.0396073985099792e+02
s_1_81 0
z_1_81 0
x_1_82 3.0432181143760681e+02
s_1_82 0
z_1_82 0
x_1_83 3.0441038823127747e+02
s_1_83 0
z_1_83 0
x_1_84 3.0560822844505310e+02
s_1_84 0
z_1_84 0
x_1_85 3.0638137650489807e+02
s_1_85 0
z_1_85 0
x_1_86 0
s_1_86 9.4487119792029262e-01
z_1_86 1
x_1_87 0
s_1_87 7.9174252838856773e-01
z_1_87 1
x_1_88 0
s_1_88 6.2634791573509574e-01
z_1_88 1
x_1_89 3.0629598474502563e+02
s_1_89 0
z_1_89 0
x_1_90 0
s_1_90 1.0891245729253569e+00
z_1_90 1
x_1_91 3.0459567093849182e+02
s_1_91 0
z_1_91 0
x_1_92 306.053115606308
s_1_92 0
z_1_92 0
x_1_93 0
s_1_93 6.9750869547715411e-01
z_1_93 1
x_1_94 0
s_1_94 1.6161193918669596e+00
z_1_94 1
x_1_95 3.0669859290122986e+02
s_1_95 0
z_1_95 0
x_1_96 0
s_1_96 3.4840961956069805e-01
z_1_96 1
x_1_97 3.0554945039749146e+02
s_1_97 0
z_1_97 0
x_1_98 3.0456710910797119e+02
s_1_98 0
z_1_98 0
x_1_99 0
s_1_99 1.1133936540863942e+00
z_1_99 1
x_1_100 0
s_1_100 1.0767608087044209e+00
z_1_100 1
x_1_101 3.0634892773628235e+02
s_1_101 0
z_1_101 0
x_1_102 3.0309117126464844e+02
s_1_102 0
z_1_102 0
x_1_103 0
s_1_103 1.1347745419479907e+00
z_1_103 1
x_1_104 3.0549671506881714e+02
s_1_104 0
z_1_104 0
x_1_105 0
s_1_105 9.4002858844942239e-01
z_1_105 1
x_1_106 3.0296522212028503e+02
s_1_106 0
z_1_106 0
x_1_107 0
s_1_107 1.0872150389477611e+00
z_1_107 1
x_1_108 3.0535210776329041e+02
s_1_108 0
z_1_108 0
x_1_109 0
s_1_109 9.8602164810290560e-01
z_1_109 1
x_1_110 0
s_1_110 1.1387562464751682e+00
z_1_110 1
x_1_111 0
s_1_111 4.5767818085732870e-01
z_1_111 1
x_1_112 3.0548290181159973e+02
s_1_112 0
z_1_112 0
x_1_113 3.0430230665206909e+02
s_1_113 0
z_1_113 0
x_1_114 3.0280516743659973e+02
s_1_114 0
z_1_114 0
x_1_115 0
s_1_115 1.2347520693147089e+00
z_1_115 1
x_1_116 3.0646165275573730e+02
s_1_116 0
z_1_116 0
x_1_117 0
s_1_117 1.0923579897498712e+00
z_1_117 1
x_1_118 0
s_1_118 1.3654601275338791e+00
z_1_118 1
x_1_119 0
s_1_119 1.0654181421850808e+00
z_1_119 1
x_1_120 0
s_1_120 1.1159961231169291e+00
z_1_120 1
x_1_121 0
s_1_121 1.4148212800791953e+00
z_1_121 1
x_1_122 3.0592673444747925e+02
s_1_122 0
z_1_122 0
x_1_123 0
s_1_123 0.500299045110296
z_1_123 1
x_1_124 0
s_1_124 1.0923405894136522e+00
z_1_124 1
x_1_125 3.0262197804450989e+02
s_1_125 0
z_1_125 0
x_1_126 3.0465713143348694e+02
s_1_126 0
z_1_126 0
x_1_127 0
s_1_127 1.4577997752348892e+00
z_1_127 1
x_1_128 3.0321741271018982e+02
s_1_128 0
z_1_128 0
x_1_129 3.0381297898292542e+02
s_1_129 0
z_1_129 0
x_1_130 0
s_1_130 1.2943591920193285e+00
z_1_130 1
x_1_131 0
s_1_131 1.2637158755096607e+00
z_1_131 1
x_1_132 0
s_1_132 1.6096514323144220e+00
z_1_132 1
x_1_133 0
s_1_133 8.7736731895711273e-01
z_1_133 1
x_1_134 0
s_1_134 6.5778158530156361e-01
z_1_134 1
x_1_135 3.0422601580619812e+02
s_1_135 0
z_1_135 0
x_1_136 0
s_1_136 1.0586091380682774e+00
z_1_136 1
x_1_137 3.0657631063461304e+02
s_1_137 0
z_1_137 0
x_1_138 303.325642824173
s_1_138 0
z_1_138 0
x_1_139 3.0398680305480957e+02
s_1_139 0
z_1_139 0
x_1_140 3.0648533964157104e+02
s_1_140 0
z_1_140 0
x_1_141 3.0436343574523926e+02
s_1_141 0
z_1_141 0
x_1_142 3.0441036581993103e+02
s_1_142 0
z_1_142 0
x_1_143 3.0093377184867859e+02
s_1_143 0
z_1_143 0
x_1_144 3.0635682010650635e+02
s_1_144 0
z_1_144 0
x_1_145 3.0313708543777466e+02
s_1_145 0
z_1_145 0
x_1_146 2.9889258360862732e+02
s_1_146 0
z_1_146 0
x_1_147 0
s_1_147 1.0310519171835040e+00
z_1_147 1
x_1_148 3.0396206760406494e+02
s_1_148 0
z_1_148 0
x_1_149 3.0363860321044922e+02
s_1_149 0
z_1_149 0
x_1_150 0
s_1_150 1.5154739023710135e+00
z_1_150 1
x_1_151 3.0392561078071594e+02
s_1_151 0
z_1_151 0
x_1_152 0
s_1_152 1.3351556611160049e+00
z_1_152 1
x_1_153 3.0595528769493103e+02
s_1_153 0
z_1_153 0
x_1_154 3.0418481802940369e+02
s_1_154 0
z_1_154 0
x_1_155 0
s_1_155 1.3625471396371722e+00
z_1_155 1
x_1_156 0
s_1_156 1.2736618924827781e+00
z_1_156 1
x_1_157 3.0322167134284973e+02
s_1_157 0
z_1_157 0
x_1_158 0
s_1_158 1.0380682527320459e+00
z_1_158 1
x_1_159 3.0639304018020630e+02
s_1_159 0
z_1_159 0
x_2_0 1.7865548379869980e+05
