243/surrogate_problem/log/surrogate2_8.log

Gurobi 10.0.2 (linux64) logging started Thu Sep  7 10:02:47 2023

Set parameter LogFile to value "../surrogate_problem/log/surrogate2_8.log"
Set parameter Threads to value 30
Gurobi Optimizer version 10.0.2 build v10.0.2rc0 (linux64)

CPU model: Intel(R) Xeon(R) Platinum 8280 CPU @ 2.70GHz, instruction set [SSE2|AVX|AVX2|AVX512]
Thread count: 112 physical cores, 112 logical processors, using up to 30 threads

Optimize a model with 541 rows, 1401 columns and 149241 nonzeros
Model fingerprint: 0x0e694e36
Variable types: 321 continuous, 1080 integer (1080 binary)
Coefficient statistics:
  Matrix range     [1e-07, 1e+05]
  Objective range  [4e-01, 4e+01]
  Bounds range     [1e+00, 1e+00]
  RHS range        [3e-02, 1e+05]
Found heuristic solution: objective 221374.03751
Presolve removed 235 rows and 235 columns
Presolve time: 0.12s
Presolved: 306 rows, 1166 columns, 73001 nonzeros
Variable types: 164 continuous, 1002 integer (1002 binary)

Root relaxation: objective 1.797878e+05, 161 iterations, 0.00 seconds (0.01 work units)

    Nodes    |    Current Node    |     Objective Bounds      |     Work
 Expl Unexpl |  Obj  Depth IntInf | Incumbent    BestBd   Gap | It/Node Time

     0     0 179787.781    0   19 221374.038 179787.781  18.8%     -    0s
H    0     0                    179787.90780 179787.781  0.00%     -    0s
     0     0 179787.781    0   19 179787.908 179787.781  0.00%     -    0s

Explored 1 nodes (161 simplex iterations) in 0.19 seconds (0.15 work units)
Thread count was 30 (of 112 available processors)

Solution count 2: 179788 221374 

Optimal solution found (tolerance 1.00e-04)
Best objective 1.797879077987e+05, best bound 1.797879077987e+05, gap 0.0000%

Gurobi 10.0.2 (linux64) logging started Fri Sep  8 15:07:33 2023

Set parameter LogFile to value "../surrogate_problem/log/surrogate2_8.log"
Gurobi Optimizer version 10.0.2 build v10.0.2rc0 (linux64)

CPU model: Intel(R) Xeon(R) Platinum 8280 CPU @ 2.70GHz, instruction set [SSE2|AVX|AVX2|AVX512]
Thread count: 112 physical cores, 112 logical processors, using up to 30 threads

Optimize a model with 541 rows, 1401 columns and 149241 nonzeros
Model fingerprint: 0x0e694e36
Variable types: 321 continuous, 1080 integer (1080 binary)
Coefficient statistics:
  Matrix range     [1e-07, 1e+05]
  Objective range  [4e-01, 4e+01]
  Bounds range     [1e+00, 1e+00]
  RHS range        [3e-02, 1e+05]
Found heuristic solution: objective 221374.03751
Presolve removed 235 rows and 235 columns
Presolve time: 0.12s
Presolved: 306 rows, 1166 columns, 73001 nonzeros
Variable types: 164 continuous, 1002 integer (1002 binary)

Root relaxation: objective 1.797878e+05, 161 iterations, 0.01 seconds (0.01 work units)

    Nodes    |    Current Node    |     Objective Bounds      |     Work
 Expl Unexpl |  Obj  Depth IntInf | Incumbent    BestBd   Gap | It/Node Time

     0     0 179787.781    0   19 221374.038 179787.781  18.8%     -    0s
H    0     0                    179787.90780 179787.781  0.00%     -    0s
     0     0 179787.781    0   19 179787.908 179787.781  0.00%     -    0s

Explored 1 nodes (161 simplex iterations) in 0.22 seconds (0.15 work units)
Thread count was 30 (of 112 available processors)

Solution count 2: 179788 221374 

Optimal solution found (tolerance 1.00e-04)
Best objective 1.797879077987e+05, best bound 1.797879077987e+05, gap 0.0000%
